certificates/rado_a22_c16_N167.cnf
c Rad2 upper bound instance: x1 + 22*x2 - x3 = 16, interval [1,167]
p cnf 167 1344
1 7 0
-1 -7 0
1 2 29 0
-1 -2 -29 0
1 3 51 0
-1 -3 -51 0
1 4 73 0
-1 -4 -73 0
1 5 95 0
-1 -5 -95 0
1 6 117 0
-1 -6 -117 0
1 7 139 0
-1 -7 -139 0
1 8 161 0
-1 -8 -161 0
1 2 8 0
-1 -2 -8 0
2 30 0
-2 -30 0
2 3 52 0
-2 -3 -52 0
2 4 74 0
-2 -4 -74 0
2 5 96 0
-2 -5 -96 0
2 6 118 0
-2 -6 -118 0
2 7 140 0
-2 -7 -140 0
2 8 162 0
-2 -8 -162 0
1 3 9 0
-1 -3 -9 0
2 3 31 0
-2 -3 -31 0
3 53 0
-3 -53 0
3 4 75 0
-3 -4 -75 0
3 5 97 0
-3 -5 -97 0
3 6 119 0
-3 -6 -119 0
3 7 141 0
-3 -7 -141 0
3 8 163 0
-3 -8 -163 0
1 4 10 0
-1 -4 -10 0
2 4 32 0
-2 -4 -32 0
3 4 54 0
-3 -4 -54 0
4 76 0
-4 -76 0
4 5 98 0
-4 -5 -98 0
4 6 120 0
-4 -6 -120 0
4 7 142 0
-4 -7 -142 0
4 8 164 0
-4 -8 -164 0
1 5 11 0
-1 -5 -11 0
2 5 33 0
-2 -5 -33 0
3 5 55 0
-3 -5 -55 0
4 5 77 0
-4 -5 -77 0
5 99 0
-5 -99 0
5 6 121 0
-5 -6 -121 0
5 7 143 0
-5 -7 -143 0
5 8 165 0
-5 -8 -165 0
1 6 12 0
-1 -6 -12 0
2 6 34 0
-2 -6 -34 0
3 6 56 0
-3 -6 -56 0
4 6 78 0
-4 -6 -78 0
5 6 100 0
-5 -6 -100 0
6 122 0
-6 -122 0
6 7 144 0
-6 -7 -144 0
6 8 166 0
-6 -8 -166 0
1 7 13 0
-1 -7 -13 0
2 7 35 0
-2 -7 -35 0
3 7 57 0
-3 -7 -57 0
4 7 79 0
-4 -7 -79 0
5 7 101 0
-5 -7 -101 0
6 7 123 0
-6 -7 -123 0
7 145 0
-7 -145 0
7 8 167 0
-7 -8 -167 0
1 8 14 0
-1 -8 -14 0
2 8 36 0
-2 -8 -36 0
3 8 58 0
-3 -8 -58 0
4 8 80 0
-4 -8 -80 0
5 8 102 0
-5 -8 -102 0
6 8 124 0
-6 -8 -124 0
7 8 146 0
-7 -8 -146 0
1 9 15 0
-1 -9 -15 0
2 9 37 0
-2 -9 -37 0
3 9 59 0
-3 -9 -59 0
4 9 81 0
-4 -9 -81 0
5 9 103 0
-5 -9 -103 0
6 9 125 0
-6 -9 -125 0
7 9 147 0
-7 -9 -147 0
1 10 16 0
-1 -10 -16 0
2 10 38 0
-2 -10 -38 0
3 10 60 0
-3 -10 -60 0
4 10 82 0
-4 -10 -82 0
5 10 104 0
-5 -10 -104 0
6 10 126 0
-6 -10 -126 0
7 10 148 0
-7 -10 -148 0
1 11 17 0
-1 -11 -17 0
2 11 39 0
-2 -11 -39 0
3 11 61 0
-3 -11 -61 0
4 11 83 0
-4 -11 -83 0
5 11 105 0
-5 -11 -105 0
6 11 127 0
-6 -11 -127 0
7 11 149 0
-7 -11 -149 0
1 12 18 0
-1 -12 -18 0
2 12 40 0
-2 -12 -40 0
3 12 62 0
-3 -12 -62 0
4 12 84 0
-4 -12 -84 0
5 12 106 0
-5 -12 -106 0
6 12 128 0
-6 -12 -128 0
7 12 150 0
-7 -12 -150 0
1 13 19 0
-1 -13 -19 0
2 13 41 0
-2 -13 -41 0
3 13 63 0
-3 -13 -63 0
4 13 85 0
-4 -13 -85 0
5 13 107 0
-5 -13 -107 0
6 13 129 0
-6 -13 -129 0
7 13 151 0
-7 -13 -151 0
1 14 20 0
-1 -14 -20 0
2 14 42 0
-2 -14 -42 0
3 14 64 0
-3 -14 -64 0
4 14 86 0
-4 -14 -86 0
5 14 108 0
-5 -14 -108 0
6 14 130 0
-6 -14 -130 0
7 14 152 0
-7 -14 -152 0
1 15 21 0
-1 -15 -21 0
2 15 43 0
-2 -15 -43 0
3 15 65 0
-3 -15 -65 0
4 15 87 0
-4 -15 -87 0
5 15 109 0
-5 -15 -109 0
6 15 131 0
-6 -15 -131 0
7 15 153 0
-7 -15 -153 0
1 16 22 0
-1 -16 -22 0
2 16 44 0
-2 -16 -44 0
3 16 66 0
-3 -16 -66 0
4 16 88 0
-4 -16 -88 0
5 16 110 0
-5 -16 -110 0
6 16 132 0
-6 -16 -132 0
7 16 154 0
-7 -16 -154 0
1 17 23 0
-1 -17 -23 0
2 17 45 0
-2 -17 -45 0
3 17 67 0
-3 -17 -67 0
4 17 89 0
-4 -17 -89 0
5 17 111 0
-5 -17 -111 0
6 17 133 0
-6 -17 -133 0
7 17 155 0
-7 -17 -155 0
1 18 24 0
-1 -18 -24 0
2 18 46 0
-2 -18 -46 0
3 18 68 0
-3 -18 -68 0
4 18 90 0
-4 -18 -90 0
5 18 112 0
-5 -18 -112 0
6 18 134 0
-6 -18 -134 0
7 18 156 0
-7 -18 -156 0
1 19 25 0
-1 -19 -25 0
2 19 47 0
-2 -19 -47 0
3 19 69 0
-3 -19 -69 0
4 19 91 0
-4 -19 -91 0
5 19 113 0
-5 -19 -113 0
6 19 135 0
-6 -19 -135 0
7 19 157 0
-7 -19 -157 0
1 20 26 0
-1 -20 -26 0
2 20 48 0
-2 -20 -48 0
3 20 70 0
-3 -20 -70 0
4 20 92 0
-4 -20 -92 0
5 20 114 0
-5 -20 -114 0
6 20 136 0
-6 -20 -136 0
7 20 158 0
-7 -20 -158 0
1 21 27 0
-1 -21 -27 0
2 21 49 0
-2 -21 -49 0
3 21 71 0
-3 -21 -71 0
4 21 93 0
-4 -21 -93 0
5 21 115 0
-5 -21 -115 0
6 21 137 0
-6 -21 -137 0
7 21 159 0
-7 -21 -159 0
1 22 28 0
-1 -22 -28 0
2 22 50 0
-2 -22 -50 0
3 22 72 0
-3 -22 -72 0
4 22 94 0
-4 -22 -94 0
5 22 116 0
-5 -22 -116 0
6 22 138 0
-6 -22 -138 0
7 22 160 0
-7 -22 -160 0
1 23 29 0
-1 -23 -29 0
2 23 51 0
-2 -23 -51 0
3 23 73 0
-3 -23 -73 0
4 23 95 0
-4 -23 -95 0
5 23 117 0
-5 -23 -117 0
6 23 139 0
-6 -23 -139 0
7 23 161 0
-7 -23 -161 0
1 24 30 0
-1 -24 -30 0
2 24 52 0
-2 -24 -52 0
3 24 74 0
-3 -24 -74 0
4 24 96 0
-4 -24 -96 0
5 24 118 0
-5 -24 -118 0
6 24 140 0
-6 -24 -140 0
7 24 162 0
-7 -24 -162 0
1 25 31 0
-1 -25 -31 0
2 25 53 0
-2 -25 -53 0
3 25 75 0
-3 -25 -75 0
4 25 97 0
-4 -25 -97 0
5 25 119 0
-5 -25 -119 0
6 25 141 0
-6 -25 -141 0
7 25 163 0
-7 -25 -163 0
1 26 32 0
-1 -26 -32 0
2 26 54 0
-2 -26 -54 0
3 26 76 0
-3 -26 -76 0
4 26 98 0
-4 -26 -98 0
5 26 120 0
-5 -26 -120 0
6 26 142 0
-6 -26 -142 0
7 26 164 0
-7 -26 -164 0
1 27 33 0
-1 -27 -33 0
2 27 55 0
-2 -27 -55 0
3 27 77 0
-3 -27 -77 0
4 27 99 0
-4 -27 -99 0
5 27 121 0
-5 -27 -121 0
6 27 143 0
-6 -27 -143 0
7 27 165 0
-7 -27 -165 0
1 28 34 0
-1 -28 -34 0
2 28 56 0
-2 -28 -56 0
3 28 78 0
-3 -28 -78 0
4 28 100 0
-4 -28 -100 0
5 28 122 0
-5 -28 -122 0
6 28 144 0
-6 -28 -144 0
7 28 166 0
-7 -28 -166 0
1 29 35 0
-1 -29 -35 0
2 29 57 0
-2 -29 -57 0
3 29 79 0
-3 -29 -79 0
4 29 101 0
-4 -29 -101 0
5 29 123 0
-5 -29 -123 0
6 29 145 0
-6 -29 -145 0
7 29 167 0
-7 -29 -167 0
1 30 36 0
-1 -30 -36 0
2 30 58 0
-2 -30 -58 0
3 30 80 0
-3 -30 -80 0
4 30 102 0
-4 -30 -102 0
5 30 124 0
-5 -30 -124 0
6 30 146 0
-6 -30 -146 0
1 31 37 0
-1 -31 -37 0
2 31 59 0
-2 -31 -59 0
3 31 81 0
-3 -31 -81 0
4 31 103 0
-4 -31 -103 0
5 31 125 0
-5 -31 -125 0
6 31 147 0
-6 -31 -147 0
1 32 38 0
-1 -32 -38 0
2 32 60 0
-2 -32 -60 0
3 32 82 0
-3 -32 -82 0
4 32 104 0
-4 -32 -104 0
5 32 126 0
-5 -32 -126 0
6 32 148 0
-6 -32 -148 0
1 33 39 0
-1 -33 -39 0
2 33 61 0
-2 -33 -61 0
3 33 83 0
-3 -33 -83 0
4 33 105 0
-4 -33 -105 0
5 33 127 0
-5 -33 -127 0
6 33 149 0
-6 -33 -149 0
1 34 40 0
-1 -34 -40 0
2 34 62 0
-2 -34 -62 0
3 34 84 0
-3 -34 -84 0
4 34 106 0
-4 -34 -106 0
5 34 128 0
-5 -34 -128 0
6 34 150 0
-6 -34 -150 0
1 35 41 0
-1 -35 -41 0
2 35 63 0
-2 -35 -63 0
3 35 85 0
-3 -35 -85 0
4 35 107 0
-4 -35 -107 0
5 35 129 0
-5 -35 -129 0
6 35 151 0
-6 -35 -151 0
1 36 42 0
-1 -36 -42 0
2 36 64 0
-2 -36 -64 0
3 36 86 0
-3 -36 -86 0
4 36 108 0
-4 -36 -108 0
5 36 130 0
-5 -36 -130 0
6 36 152 0
-6 -36 -152 0
1 37 43 0
-1 -37 -43 0
2 37 65 0
-2 -37 -65 0
3 37 87 0
-3 -37 -87 0
4 37 109 0
-4 -37 -109 0
5 37 131 0
-5 -37 -131 0
6 37 153 0
-6 -37 -153 0
1 38 44 0
-1 -38 -44 0
2 38 66 0
-2 -38 -66 0
3 38 88 0
-3 -38 -88 0
4 38 110 0
-4 -38 -110 0
5 38 132 0
-5 -38 -132 0
6 38 154 0
-6 -38 -154 0
1 39 45 0
-1 -39 -45 0
2 39 67 0
-2 -39 -67 0
3 39 89 0
-3 -39 -89 0
4 39 111 0
-4 -39 -111 0
5 39 133 0
-5 -39 -133 0
6 39 155 0
-6 -39 -155 0
1 40 46 0
-1 -40 -46 0
2 40 68 0
-2 -40 -68 0
3 40 90 0
-3 -40 -90 0
4 40 112 0
-4 -40 -112 0
5 40 134 0
-5 -40 -134 0
6 40 156 0
-6 -40 -156 0
1 41 47 0
-1 -41 -47 0
2 41 69 0
-2 -41 -69 0
3 41 91 0
-3 -41 -91 0
4 41 113 0
-4 -41 -113 0
5 41 135 0
-5 -41 -135 0
6 41 157 0
-6 -41 -157 0
1 42 48 0
-1 -42 -48 0
2 42 70 0
-2 -42 -70 0
3 42 92 0
-3 -42 -92 0
4 42 114 0
-4 -42 -114 0
5 42 136 0
-5 -42 -136 0
6 42 158 0
-6 -42 -158 0
1 43 49 0
-1 -43 -49 0
2 43 71 0
-2 -43 -71 0
3 43 93 0
-3 -43 -93 0
4 43 115 0
-4 -43 -115 0
5 43 137 0
-5 -43 -137 0
6 43 159 0
-6 -43 -159 0
1 44 50 0
-1 -44 -50 0
2 44 72 0
-2 -44 -72 0
3 44 94 0
-3 -44 -94 0
4 44 116 0
-4 -44 -116 0
5 44 138 0
-5 -44 -138 0
6 44 160 0
-6 -44 -160 0
1 45 51 0
-1 -45 -51 0
2 45 73 0
-2 -45 -73 0
3 45 95 0
-3 -45 -95 0
4 45 117 0
-4 -45 -117 0
5 45 139 0
-5 -45 -139 0
6 45 161 0
-6 -45 -161 0
1 46 52 0
-1 -46 -52 0
2 46 74 0
-2 -46 -74 0
3 46 96 0
-3 -46 -96 0
4 46 118 0
-4 -46 -118 0
5 46 140 0
-5 -46 -140 0
6 46 162 0
-6 -46 -162 0
1 47 53 0
-1 -47 -53 0
2 47 75 0
-2 -47 -75 0
3 47 97 0
-3 -47 -97 0
4 47 119 0
-4 -47 -119 0
5 47 141 0
-5 -47 -141 0
6 47 163 0
-6 -47 -163 0
1 48 54 0
-1 -48 -54 0
2 48 76 0
-2 -48 -76 0
3 48 98 0
-3 -48 -98 0
4 48 120 0
-4 -48 -120 0
5 48 142 0
-5 -48 -142 0
6 48 164 0
-6 -48 -164 0
1 49 55 0
-1 -49 -55 0
2 49 77 0
-2 -49 -77 0
3 49 99 0
-3 -49 -99 0
4 49 121 0
-4 -49 -121 0
5 49 143 0
-5 -49 -143 0
6 49 165 0
-6 -49 -165 0
1 50 56 0
-1 -50 -56 0
2 50 78 0
-2 -50 -78 0
3 50 100 0
-3 -50 -100 0
4 50 122 0
-4 -50 -122 0
5 50 144 0
-5 -50 -144 0
6 50 166 0
-6 -50 -166 0
1 51 57 0
-1 -51 -57 0
2 51 79 0
-2 -51 -79 0
3 51 101 0
-3 -51 -101 0
4 51 123 0
-4 -51 -123 0
5 51 145 0
-5 -51 -145 0
6 51 167 0
-6 -51 -167 0
1 52 58 0
-1 -52 -58 0
2 52 80 0
-2 -52 -80 0
3 52 102 0
-3 -52 -102 0
4 52 124 0
-4 -52 -124 0
5 52 146 0
-5 -52 -146 0
1 53 59 0
-1 -53 -59 0
2 53 81 0
-2 -53 -81 0
3 53 103 0
-3 -53 -103 0
4 53 125 0
-4 -53 -125 0
5 53 147 0
-5 -53 -147 0
1 54 60 0
-1 -54 -60 0
2 54 82 0
-2 -54 -82 0
3 54 104 0
-3 -54 -104 0
4 54 126 0
-4 -54 -126 0
5 54 148 0
-5 -54 -148 0
1 55 61 0
-1 -55 -61 0
2 55 83 0
-2 -55 -83 0
3 55 105 0
-3 -55 -105 0
4 55 127 0
-4 -55 -127 0
5 55 149 0
-5 -55 -149 0
1 56 62 0
-1 -56 -62 0
2 56 84 0
-2 -56 -84 0
3 56 106 0
-3 -56 -106 0
4 56 128 0
-4 -56 -128 0
5 56 150 0
-5 -56 -150 0
1 57 63 0
-1 -57 -63 0
2 57 85 0
-2 -57 -85 0
3 57 107 0
-3 -57 -107 0
4 57 129 0
-4 -57 -129 0
5 57 151 0
-5 -57 -151 0
1 58 64 0
-1 -58 -64 0
2 58 86 0
-2 -58 -86 0
3 58 108 0
-3 -58 -108 0
4 58 130 0
-4 -58 -130 0
5 58 152 0
-5 -58 -152 0
1 59 65 0
-1 -59 -65 0
2 59 87 0
-2 -59 -87 0
3 59 109 0
-3 -59 -109 0
4 59 131 0
-4 -59 -131 0
5 59 153 0
-5 -59 -153 0
1 60 66 0
-1 -60 -66 0
2 60 88 0
-2 -60 -88 0
3 60 110 0
-3 -60 -110 0
4 60 132 0
-4 -60 -132 0
5 60 154 0
-5 -60 -154 0
1 61 67 0
-1 -61 -67 0
2 61 89 0
-2 -61 -89 0
3 61 111 0
-3 -61 -111 0
4 61 133 0
-4 -61 -133 0
5 61 155 0
-5 -61 -155 0
1 62 68 0
-1 -62 -68 0
2 62 90 0
-2 -62 -90 0
3 62 112 0
-3 -62 -112 0
4 62 134 0
-4 -62 -134 0
5 62 156 0
-5 -62 -156 0
1 63 69 0
-1 -63 -69 0
2 63 91 0
-2 -63 -91 0
3 63 113 0
-3 -63 -113 0
4 63 135 0
-4 -63 -135 0
5 63 157 0
-5 -63 -157 0
1 64 70 0
-1 -64 -70 0
2 64 92 0
-2 -64 -92 0
3 64 114 0
-3 -64 -114 0
4 64 136 0
-4 -64 -136 0
5 64 158 0
-5 -64 -158 0
1 65 71 0
-1 -65 -71 0
2 65 93 0
-2 -65 -93 0
3 65 115 0
-3 -65 -115 0
4 65 137 0
-4 -65 -137 0
5 65 159 0
-5 -65 -159 0
1 66 72 0
-1 -66 -72 0
2 66 94 0
-2 -66 -94 0
3 66 116 0
-3 -66 -116 0
4 66 138 0
-4 -66 -138 0
5 66 160 0
-5 -66 -160 0
1 67 73 0
-1 -67 -73 0
2 67 95 0
-2 -67 -95 0
3 67 117 0
-3 -67 -117 0
4 67 139 0
-4 -67 -139 0
5 67 161 0
-5 -67 -161 0
1 68 74 0
-1 -68 -74 0
2 68 96 0
-2 -68 -96 0
3 68 118 0
-3 -68 -118 0
4 68 140 0
-4 -68 -140 0
5 68 162 0
-5 -68 -162 0
1 69 75 0
-1 -69 -75 0
2 69 97 0
-2 -69 -97 0
3 69 119 0
-3 -69 -119 0
4 69 141 0
-4 -69 -141 0
5 69 163 0
-5 -69 -163 0
1 70 76 0
-1 -70 -76 0
2 70 98 0
-2 -70 -98 0
3 70 120 0
-3 -70 -120 0
4 70 142 0
-4 -70 -142 0
5 70 164 0
-5 -70 -164 0
1 71 77 0
-1 -71 -77 0
2 71 99 0
-2 -71 -99 0
3 71 121 0
-3 -71 -121 0
4 71 143 0
-4 -71 -143 0
5 71 165 0
-5 -71 -165 0
1 72 78 0
-1 -72 -78 0
2 72 100 0
-2 -72 -100 0
3 72 122 0
-3 -72 -122 0
4 72 144 0
-4 -72 -144 0
5 72 166 0
-5 -72 -166 0
1 73 79 0
-1 -73 -79 0
2 73 101 0
-2 -73 -101 0
3 73 123 0
-3 -73 -123 0
4 73 145 0
-4 -73 -145 0
5 73 167 0
-5 -73 -167 0
1 74 80 0
-1 -74 -80 0
2 74 102 0
-2 -74 -102 0
3 74 124 0
-3 -74 -124 0
4 74 146 0
-4 -74 -146 0
1 75 81 0
-1 -75 -81 0
2 75 103 0
-2 -75 -103 0
3 75 125 0
-3 -75 -125 0
4 75 147 0
-4 -75 -147 0
1 76 82 0
-1 -76 -82 0
2 76 104 0
-2 -76 -104 0
3 76 126 0
-3 -76 -126 0
4 76 148 0
-4 -76 -148 0
1 77 83 0
-1 -77 -83 0
2 77 105 0
-2 -77 -105 0
3 77 127 0
-3 -77 -127 0
4 77 149 0
-4 -77 -149 0
1 78 84 0
-1 -78 -84 0
2 78 106 0
-2 -78 -106 0
3 78 128 0
-3 -78 -128 0
4 78 150 0
-4 -78 -150 0
1 79 85 0
-1 -79 -85 0
2 79 107 0
-2 -79 -107 0
3 79 129 0
-3 -79 -129 0
4 79 151 0
-4 -79 -151 0
1 80 86 0
-1 -80 -86 0
2 80 108 0
-2 -80 -108 0
3 80 130 0
-3 -80 -130 0
4 80 152 0
-4 -80 -152 0
1 81 87 0
-1 -81 -87 0
2 81 109 0
-2 -81 -109 0
3 81 131 0
-3 -81 -131 0
4 81 153 0
-4 -81 -153 0
1 82 88 0
-1 -82 -88 0
2 82 110 0
-2 -82 -110 0
3 82 132 0
-3 -82 -132 0
4 82 154 0
-4 -82 -154 0
1 83 89 0
-1 -83 -89 0
2 83 111 0
-2 -83 -111 0
3 83 133 0
-3 -83 -133 0
4 83 155 0
-4 -83 -155 0
1 84 90 0
-1 -84 -90 0
2 84 112 0
-2 -84 -112 0
3 84 134 0
-3 -84 -134 0
4 84 156 0
-4 -84 -156 0
1 85 91 0
-1 -85 -91 0
2 85 113 0
-2 -85 -113 0
3 85 135 0
-3 -85 -135 0
4 85 157 0
-4 -85 -157 0
1 86 92 0
-1 -86 -92 0
2 86 114 0
-2 -86 -114 0
3 86 136 0
-3 -86 -136 0
4 86 158 0
-4 -86 -158 0
1 87 93 0
-1 -87 -93 0
2 87 115 0
-2 -87 -115 0
3 87 137 0
-3 -87 -137 0
4 87 159 0
-4 -87 -159 0
1 88 94 0
-1 -88 -94 0
2 88 116 0
-2 -88 -116 0
3 88 138 0
-3 -88 -138 0
4 88 160 0
-4 -88 -160 0
1 89 95 0
-1 -89 -95 0
2 89 117 0
-2 -89 -117 0
3 89 139 0
-3 -89 -139 0
4 89 161 0
-4 -89 -161 0
1 90 96 0
-1 -90 -96 0
2 90 118 0
-2 -90 -118 0
3 90 140 0
-3 -90 -140 0
4 90 162 0
-4 -90 -162 0
1 91 97 0
-1 -91 -97 0
2 91 119 0
-2 -91 -119 0
3 91 141 0
-3 -91 -141 0
4 91 163 0
-4 -91 -163 0
1 92 98 0
-1 -92 -98 0
2 92 120 0
-2 -92 -120 0
3 92 142 0
-3 -92 -142 0
4 92 164 0
-4 -92 -164 0
1 93 99 0
-1 -93 -99 0
2 93 121 0
-2 -93 -121 0
3 93 143 0
-3 -93 -143 0
4 93 165 0
-4 -93 -165 0
1 94 100 0
-1 -94 -100 0
2 94 122 0
-2 -94 -122 0
3 94 144 0
-3 -94 -144 0
4 94 166 0
-4 -94 -166 0
1 95 101 0
-1 -95 -101 0
2 95 123 0
-2 -95 -123 0
3 95 145 0
-3 -95 -145 0
4 95 167 0
-4 -95 -167 0
1 96 102 0
-1 -96 -102 0
2 96 124 0
-2 -96 -124 0
3 96 146 0
-3 -96 -146 0
1 97 103 0
-1 -97 -103 0
2 97 125 0
-2 -97 -125 0
3 97 147 0
-3 -97 -147 0
1 98 104 0
-1 -98 -104 0
2 98 126 0
-2 -98 -126 0
3 98 148 0
-3 -98 -148 0
1 99 105 0
-1 -99 -105 0
2 99 127 0
-2 -99 -127 0
3 99 149 0
-3 -99 -149 0
1 100 106 0
-1 -100 -106 0
2 100 128 0
-2 -100 -128 0
3 100 150 0
-3 -100 -150 0
1 101 107 0
-1 -101 -107 0
2 101 129 0
-2 -101 -129 0
3 101 151 0
-3 -101 -151 0
1 102 108 0
-1 -102 -108 0
2 102 130 0
-2 -102 -130 0
3 102 152 0
-3 -102 -152 0
1 103 109 0
-1 -103 -109 0
2 103 131 0
-2 -103 -131 0
3 103 153 0
-3 -103 -153 0
1 104 110 0
-1 -104 -110 0
2 104 132 0
-2 -104 -132 0
3 104 154 0
-3 -104 -154 0
1 105 111 0
-1 -105 -111 0
2 105 133 0
-2 -105 -133 0
3 105 155 0
-3 -105 -155 0
1 106 112 0
-1 -106 -112 0
2 106 134 0
-2 -106 -134 0
3 106 156 0
-3 -106 -156 0
1 107 113 0
-1 -107 -113 0
2 107 135 0
-2 -107 -135 0
3 107 157 0
-3 -107 -157 0
1 108 114 0
-1 -108 -114 0
2 108 136 0
-2 -108 -136 0
3 108 158 0
-3 -108 -158 0
1 109 115 0
-1 -109 -115 0
2 109 137 0
-2 -109 -137 0
3 109 159 0
-3 -109 -159 0
1 110 116 0
-1 -110 -116 0
2 110 138 0
-2 -110 -138 0
3 110 160 0
-3 -110 -160 0
1 111 117 0
-1 -111 -117 0
2 111 139 0
-2 -111 -139 0
3 111 161 0
-3 -111 -161 0
1 112 118 0
-1 -112 -118 0
2 112 140 0
-2 -112 -140 0
3 112 162 0
-3 -112 -162 0
1 113 119 0
-1 -113 -119 0
2 113 141 0
-2 -113 -141 0
3 113 163 0
-3 -113 -163 0
1 114 120 0
-1 -114 -120 0
2 114 142 0
-2 -114 -142 0
3 114 164 0
-3 -114 -164 0
1 115 121 0
-1 -115 -121 0
2 115 143 0
-2 -115 -143 0
3 115 165 0
-3 -115 -165 0
1 116 122 0
-1 -116 -122 0
2 116 144 0
-2 -116 -144 0
3 116 166 0
-3 -116 -166 0
1 117 123 0
-1 -117 -123 0
2 117 145 0
-2 -117 -145 0
3 117 167 0
-3 -117 -167 0
1 118 124 0
-1 -118 -124 0
2 118 146 0
-2 -118 -146 0
1 119 125 0
-1 -119 -125 0
2 119 147 0
-2 -119 -147 0
1 120 126 0
-1 -120 -126 0
2 120 148 0
-2 -120 -148 0
1 121 127 0
-1 -121 -127 0
2 121 149 0
-2 -121 -149 0
1 122 128 0
-1 -122 -128 0
2 122 150 0
-2 -122 -150 0
1 123 129 0
-1 -123 -129 0
2 123 151 0
-2 -123 -151 0
1 124 130 0
-1 -124 -130 0
2 124 152 0
-2 -124 -152 0
1 125 131 0
-1 -125 -131 0
2 125 153 0
-2 -125 -153 0
1 126 132 0
-1 -126 -132 0
2 126 154 0
-2 -126 -154 0
1 127 133 0
-1 -127 -133 0
2 127 155 0
-2 -127 -155 0
1 128 134 0
-1 -128 -134 0
2 128 156 0
-2 -128 -156 0
1 129 135 0
-1 -129 -135 0
2 129 157 0
-2 -129 -157 0
1 130 136 0
-1 -130 -136 0
2 130 158 0
-2 -130 -158 0
1 131 137 0
-1 -131 -137 0
2 131 159 0
-2 -131 -159 0
1 132 138 0
-1 -132 -138 0
2 132 160 0
-2 -132 -160 0
1 133 139 0
-1 -133 -139 0
2 133 161 0
-2 -133 -161 0
1 134 140 0
-1 -134 -140 0
2 134 162 0
-2 -134 -162 0
1 135 141 0
-1 -135 -141 0
2 135 163 0
-2 -135 -163 0
1 136 142 0
-1 -136 -142 0
2 136 164 0
-2 -136 -164 0
1 137 143 0
-1 -137 -143 0
2 137 165 0
-2 -137 -165 0
1 138 144 0
-1 -138 -144 0
2 138 166 0
-2 -138 -166 0
1 139 145 0
-1 -139 -145 0
2 139 167 0
-2 -139 -167 0
1 140 146 0
-1 -140 -146 0
1 141 147 0
-1 -141 -147 0
1 142 148 0
-1 -142 -148 0
1 143 149 0
-1 -143 -149 0
1 144 150 0
-1 -144 -150 0
1 145 151 0
-1 -145 -151 0
1 146 152 0
-1 -146 -152 0
1 147 153 0
-1 -147 -153 0
1 148 154 0
-1 -148 -154 0
1 149 155 0
-1 -149 -155 0
1 150 156 0
-1 -150 -156 0
1 151 157 0
-1 -151 -157 0
1 152 158 0
-1 -152 -158 0
1 153 159 0
-1 -153 -159 0
1 154 160 0
-1 -154 -160 0
1 155 161 0
-1 -155 -161 0
1 156 162 0
-1 -156 -162 0
1 157 163 0
-1 -157 -163 0
1 158 164 0
-1 -158 -164 0
1 159 165 0
-1 -159 -165 0
1 160 166 0
-1 -160 -166 0
1 161 167 0
-1 -161 -167 0
