certificates/rado_a22_c16_N167.drat
-161 -167 0
d -161 -1 -167 0
23 29 161 0
-7 -167 0
4 -167 0
-167 0
-1 0
7 0
161 0
-145 0
-23 0
151 0
139 0
29 0
17 0
-13 0
-155 0
19 0
149 0
-157 0
-11 0
163 0
5 0
-25 0
-99 0
-143 0
-101 0
-111 0
-113 0
-123 0
-45 0
-55 0
-57 0
-67 0
-69 0
31 0
105 0
93 0
137 0
107 0
95 0
117 0
119 0
129 0
51 0
39 0
61 0
49 0
63 0
73 0
75 0
-125 0
-43 0
-35 0
-133 0
131 0
37 0
41 0
127 0
0
